src/testinstances.txt
# Nr of Items 
12
# Nr of Knapsacks 
2
# Nr of Constraints 
2
# Items profits:
80 
1 
93 
51 
13 
38 
23 
79 
70 
40 
94 
18 

# Items weights:
57 7 
17 98 
76 83 
53 89 
96 4 
27 17 
75 26 
77 54 
44 9 
63 68 
47 45 
67 26 
# Knapsacks:
198 165 
301 217 
